\ Model Routes
\ LP format - for model browsing. Use MPS format to capture full model detail.
Maximize
  - 191.7153353028244 R{0,0} + 623.2046552982704 R{0,1}
   + 623.2046552982704 R{0,2} - 249.2301939667805 R{0,3}
   + 234.7650315204939 R{0,4} + 397.2891588355392 R{0,5}
   + 449.0745601781551 R{0,6} + 827.8992369343669 R{0,7}
   + 592.7206778310878 R{0,8} + 568.2280287393723 R{0,9}
   + 438.444658217614 R{0,10} + 351.5833382601838 R{0,11}
   + 795.0101265065207 R{0,12} + 424.8918620484191 R{0,13}
   + 734.1859391671441 R{0,14} + 1116.017332768987 R{0,15}
   + 775.86553068885 R{0,16} + 608.7677671940226 R{0,17}
   + 272.3539196879134 R{0,18} + 525.3826940233954 R{0,19}
   + 499.1475184913562 R{0,20} + 250.9024568376898 R{0,21}
   + 834.5382469467891 R{0,22} + 311.8855119779856 R{0,23}
   + 392.8772696818096 R{0,24} + 525.6411779677452 R{0,25}
   + 896.7526187953054 R{0,26} + 411.3770750386024 R{0,27}
   - 256.140831891889 R{1,0} - 58.16416216887956 R{1,1}
   + 669.0062570112706 R{1,2} + 350.1605932839503 R{1,3}
   + 1411.530187594857 R{1,4} + 705.3436373335674 R{1,5}
   + 1718.195221218002 R{1,6} + 822.1030185139525 R{1,7}
   + 539.3957426379517 R{1,8} + 511.5301659646134 R{1,9}
   + 822.1030185139525 R{1,10} + 223.5535695116518 R{1,11}
   + 1268.744334239831 R{1,12} + 511.5301659646134 R{1,13}
   + 1334.283165279067 R{1,14} + 1074.680362734665 R{1,15}
   + 322.1240901334671 R{1,16} + 223.5535695116518 R{1,17}
   + 805.9794542465654 R{1,18} + 1531.257301836034 R{1,19}
   + 241.3911687856281 R{1,20} + 218.0275660033432 R{1,21}
   + 685.5045100083489 R{1,22} + 1181.1548700472 R{1,23}
   + 1201.605518188287 R{1,24} + 1111.393639468286 R{1,25}
   + 764.6492483187186 R{2,0} + 764.6492483187186 R{2,1}
   - 278.4443928850388 R{2,2} - 59.13410337035452 R{2,3}
   + 602.7748664658451 R{2,4} + 1100.505917706273 R{2,5}
   + 39.69439388198458 R{2,6} + 343.8687336675509 R{2,7}
   + 254.2765511022717 R{2,8} + 177.8426664283916 R{2,9}
   + 747.7303797479343 R{2,10} + 178.3954307492584 R{2,11}
   + 916.1855209384714 R{2,12} + 766.8600415488172 R{2,13}
   + 906.9444311050818 R{2,14} + 166.915855543099 R{2,15}
   + 280.1745915141873 R{2,16} - 72.91332921304459 R{2,17}
   + 1000.527999503345 R{2,18} + 297.9638748278347 R{2,19}
   + 594.00040625869 R{2,20} - 293.3150317885309 R{2,21}
   + 572.1793080184265 R{2,22} + 383.7964283720826 R{2,23}
   + 516.4668591352058 R{2,24} + 349.2178034624031 R{2,25}
   + 102.0107556640876 R{2,26} + 1928.050062168792 R{2,27}
   + 1127.126554447374 R{2,28} + 97.26377306769962 R{2,29}
   + 742.0269909325874 R{2,30} + 588.8772757960948 R{2,31}
   - 260.2482995389823 R{3,0} + 967.7221973521264 R{3,1}
   + 1335.663160618656 R{3,2} + 1696.665877888776 R{3,3}
   + 1381.011324258239 R{3,4} + 544.4834460798352 R{3,5}
   + 1536.393493627874 R{3,6} + 1644.460058649332 R{3,7}
   + 1192.650500283886 R{3,8} + 1030.787392891374 R{3,9}
   + 995.0239276179145 R{3,10} + 1357.595651184325 R{3,11}
   + 1498.149833638178 R{3,12} + 1669.259041864146 R{3,13}
   + 1030.787392891374 R{3,14} + 1274.468177248157 R{3,15}
   + 592.8936870413984 R{3,16} + 1371.347447956458 R{3,17}
   + 1112.243776507833 R{3,18} + 512.7161095856436 R{3,19}
   + 563.9449369554133 R{3,20} + 963.3798025672647 R{3,21}
   + 463.3191131616402 R{3,22} + 1291.96199273127 R{3,23}
   + 972.2116037820974 R{3,24} + 991.5628848661115 R{3,25}
   + 1396.979706730315 R{3,26} + 309.1766222876553 R{3,27}
   + 778.2340320142279 R{3,28} + 1711.702610151232 R{3,29}
   + 975.304630343699 R{3,30} + 556.8584175355079 R{3,31}
   + 1090.899765830588 R{3,32} + 184.8213000163348 R{3,33}
   + 285.8672097998617 R{3,34} + 307.2991381854137 R{3,35}
   + 190.3119668444351 R{3,36} + 1181.945258391215 R{3,37}
   + 1124.377741436407 R{3,38} + 58.58062385219432 R{3,39}
   + 321.427255956663 R{3,40} + 50.20360499359612 R{3,41}
   + 1052.105416940335 R{3,42} + 1101.93807860649 R{3,43}
   + 107.3548566906289 R{3,44} + 103.6634818907858 R{3,45}
   + 1420.0542897393 R{3,46} - 242.5208875955131 R{4,0}
   + 1055.572474837385 R{4,1} + 1576.196574514046 R{4,2}
   + 976.481147295282 R{4,3} + 1518.476392418149 R{4,4}
   + 1948.139305753423 R{4,5} + 1051.881338787204 R{4,6}
   + 925.6193789736358 R{4,7} + 1240.323791714989 R{4,8}
   + 1151.657845051167 R{4,9} + 861.1728262109568 R{4,10}
   + 1078.505095976932 R{4,11} + 1345.931985221646 R{4,12}
   + 1076.914576783045 R{4,13} + 772.9350605772133 R{4,14}
   + 1283.693189950874 R{4,15} + 1172.533140168441 R{4,16}
   + 973.3769454402195 R{4,17} + 1436.893171563033 R{4,18}
   + 236.9722851855351 R{4,19} + 583.0326807860467 R{4,20}
   + 1156.711074026583 R{4,21} + 567.4322025023023 R{4,22}
   + 1033.643521015424 R{4,23} + 479.7132444821416 R{4,24}
   + 1926.970733765133 R{4,25} + 1466.495592248387 R{4,26}
   + 681.1591773712539 R{4,27} + 1030.488775387212 R{4,28}
   + 731.4415430177335 R{4,29} + 752.2582594873857 R{4,30}
   + 1174.334772871466 R{4,31} + 576.8318938325443 R{4,32}
   + 1098.980231996544 R{4,33} + 959.6045846953702 R{4,34}
   + 1204.096079301449 R{4,35} + 959.6621188318072 R{4,36}
   + 885.462690431877 R{4,37} + 392.1744062286318 R{4,38}
   + 490.2800097433438 R{4,39} + 811.5976409347186 R{4,40}
   + 1192.462831811217 R{4,41} - 193.6947445272478 R{4,42}
   + 483.8747509233821 R{4,43} + 1355.448802825543 R{4,44}
   - 231.9775664337766 R{5,0} + 40.49903117334031 R{5,1}
   + 364.0546919427258 R{5,2} + 53.89426485381171 R{5,3}
   + 808.014549056115 R{5,4} + 839.8124838644877 R{5,5}
   + 519.8626085870756 R{5,6} + 803.2451721519842 R{5,7}
   + 461.1164015828519 R{5,8} + 2047.938396144209 R{5,9}
   + 2114.945286011463 R{5,10} + 2254.619442368171 R{5,11}
   + 394.4050036403501 R{5,12} + 2101.069018473191 R{5,13}
   + 452.4456500452544 R{5,14} + 1307.007455337827 R{5,15}
   + 1343.170485376603 R{5,16} + 2219.341609366892 R{5,17}
   + 584.0488555326215 R{5,18} + 615.6000621348774 R{5,19}
   + 553.6504893549176 R{5,20} + 736.9847443630555 R{5,21}
   + 1525.818065065345 R{5,22} + 220.3041528016933 R{5,23}
   + 352.4404095163652 R{5,24} + 1357.329307653042 R{5,25}
   + 472.8883629202167 R{5,26} + 1524.213155439486 R{5,27}
   + 1043.025049069881 R{5,28} + 2313.545954466953 R{5,29}
   + 1944.861039228433 R{5,30} + 1366.016036102819 R{5,31}
   + 563.5142734266456 R{5,32} + 801.2408336006608 R{5,33}
   + 371.9039507424213 R{5,34} + 308.9526732429399 R{5,35}
   + 913.3384640978572 R{5,36} + 458.1113492292495 R{5,37}
   + 563.8764065768796 R{5,38} - 231.1436095783099 R{6,0}
   + 190.7295528432641 R{6,1} + 780.6071695026383 R{6,2}
   + 1507.536530245978 R{6,3} + 403.3906606882501 R{6,4}
   + 1245.617075952706 R{6,5} + 392.9495639615616 R{6,6}
   + 1093.72945067642 R{6,7} + 500.7216251791765 R{6,8}
   + 1181.31250686437 R{6,9} + 1538.338777036356 R{6,10}
   + 1244.835073642188 R{6,11} + 1769.637854545574 R{6,12}
   + 911.852279551671 R{6,13} + 785.3471968227877 R{6,14}
   + 208.9830601865294 R{6,15} + 1393.065131277649 R{6,16}
   + 1566.549582630024 R{6,17} + 1312.964004655543 R{6,18}
   + 780.1959185135638 R{6,19} + 552.3143741671774 R{6,20}
   + 1390.667237624563 R{6,21} + 14.06484349851695 R{6,22}
   + 1246.715888468254 R{6,23} + 817.6768513448674 R{6,24}
   + 790.6928035765663 R{6,25} + 726.2772397665005 R{6,26}
   + 1640.092441465962 R{6,27} + 216.7319753856085 R{6,28}
   + 720.7826424595844 R{6,29} + 833.1507798702746 R{6,30}
   + 1308.804522079828 R{6,31} + 864.4043681138885 R{6,32}
   + 1670.595093251921 R{6,33} + 954.9869580969435 R{6,34}
   + 937.6914258098159 R{6,35} + 434.1718694358467 R{6,36}
   + 1950.614789008898 R{6,37} + 1195.838763225766 R{6,38}
   + 1118.815412031679 R{6,39} + 978.581996001509 R{6,40}
   + 1207.518742833733 R{6,41} + 1476.20614296358 R{6,42}
   + 420.4167730614104 R{6,43} + 1024.621883870687 R{6,44}
Subject To
 R00: R{0,0} <= 1
 R01: R{0,1} <= 1
 R02: R{0,2} <= 1
 R03: R{0,3} <= 1
 R04: R{0,4} <= 1
 R05: R{0,5} <= 1
 R06: R{0,6} <= 1
 R07: R{0,7} <= 1
 R08: R{0,8} <= 1
 R09: R{0,9} <= 1
 R010: R{0,10} <= 1
 R011: R{0,11} <= 1
 R012: R{0,12} <= 1
 R013: R{0,13} <= 1
 R014: R{0,14} <= 1
 R015: R{0,15} <= 1
 R016: R{0,16} <= 1
 R017: R{0,17} <= 1
 R018: R{0,18} <= 1
 R019: R{0,19} <= 1
 R020: R{0,20} <= 1
 R021: R{0,21} <= 1
 R022: R{0,22} <= 1
 R023: R{0,23} <= 1
 R024: R{0,24} <= 1
 R025: R{0,25} <= 1
 R026: R{0,26} <= 1
 R027: R{0,27} <= 1
 R028: R{1,0} <= 1
 R029: R{1,1} <= 1
 R030: R{1,2} <= 1
 R031: R{1,3} <= 1
 R032: R{1,4} <= 1
 R033: R{1,5} <= 1
 R034: R{1,6} <= 1
 R035: R{1,7} <= 1
 R036: R{1,8} <= 1
 R037: R{1,9} <= 1
 R038: R{1,10} <= 1
 R039: R{1,11} <= 1
 R040: R{1,12} <= 1
 R041: R{1,13} <= 1
 R042: R{1,14} <= 1
 R043: R{1,15} <= 1
 R044: R{1,16} <= 1
 R045: R{1,17} <= 1
 R046: R{1,18} <= 1
 R047: R{1,19} <= 1
 R048: R{1,20} <= 1
 R049: R{1,21} <= 1
 R050: R{1,22} <= 1
 R051: R{1,23} <= 1
 R052: R{1,24} <= 1
 R053: R{1,25} <= 1
 R054: R{2,0} <= 1
 R055: R{2,1} <= 1
 R056: R{2,2} <= 1
 R057: R{2,3} <= 1
 R058: R{2,4} <= 1
 R059: R{2,5} <= 1
 R060: R{2,6} <= 1
 R061: R{2,7} <= 1
 R062: R{2,8} <= 1
 R063: R{2,9} <= 1
 R064: R{2,10} <= 1
 R065: R{2,11} <= 1
 R066: R{2,12} <= 1
 R067: R{2,13} <= 1
 R068: R{2,14} <= 1
 R069: R{2,15} <= 1
 R070: R{2,16} <= 1
 R071: R{2,17} <= 1
 R072: R{2,18} <= 1
 R073: R{2,19} <= 1
 R074: R{2,20} <= 1
 R075: R{2,21} <= 1
 R076: R{2,22} <= 1
 R077: R{2,23} <= 1
 R078: R{2,24} <= 1
 R079: R{2,25} <= 1
 R080: R{2,26} <= 1
 R081: R{2,27} <= 1
 R082: R{2,28} <= 1
 R083: R{2,29} <= 1
 R084: R{2,30} <= 1
 R085: R{2,31} <= 1
 R086: R{3,0} <= 1
 R087: R{3,1} <= 1
 R088: R{3,2} <= 1
 R089: R{3,3} <= 1
 R090: R{3,4} <= 1
 R091: R{3,5} <= 1
 R092: R{3,6} <= 1
 R093: R{3,7} <= 1
 R094: R{3,8} <= 1
 R095: R{3,9} <= 1
 R096: R{3,10} <= 1
 R097: R{3,11} <= 1
 R098: R{3,12} <= 1
 R099: R{3,13} <= 1
 R0100: R{3,14} <= 1
 R0101: R{3,15} <= 1
 R0102: R{3,16} <= 1
 R0103: R{3,17} <= 1
 R0104: R{3,18} <= 1
 R0105: R{3,19} <= 1
 R0106: R{3,20} <= 1
 R0107: R{3,21} <= 1
 R0108: R{3,22} <= 1
 R0109: R{3,23} <= 1
 R0110: R{3,24} <= 1
 R0111: R{3,25} <= 1
 R0112: R{3,26} <= 1
 R0113: R{3,27} <= 1
 R0114: R{3,28} <= 1
 R0115: R{3,29} <= 1
 R0116: R{3,30} <= 1
 R0117: R{3,31} <= 1
 R0118: R{3,32} <= 1
 R0119: R{3,33} <= 1
 R0120: R{3,34} <= 1
 R0121: R{3,35} <= 1
 R0122: R{3,36} <= 1
 R0123: R{3,37} <= 1
 R0124: R{3,38} <= 1
 R0125: R{3,39} <= 1
 R0126: R{3,40} <= 1
 R0127: R{3,41} <= 1
 R0128: R{3,42} <= 1
 R0129: R{3,43} <= 1
 R0130: R{3,44} <= 1
 R0131: R{3,45} <= 1
 R0132: R{3,46} <= 1
 R0133: R{4,0} <= 1
 R0134: R{4,1} <= 1
 R0135: R{4,2} <= 1
 R0136: R{4,3} <= 1
 R0137: R{4,4} <= 1
 R0138: R{4,5} <= 1
 R0139: R{4,6} <= 1
 R0140: R{4,7} <= 1
 R0141: R{4,8} <= 1
 R0142: R{4,9} <= 1
 R0143: R{4,10} <= 1
 R0144: R{4,11} <= 1
 R0145: R{4,12} <= 1
 R0146: R{4,13} <= 1
 R0147: R{4,14} <= 1
 R0148: R{4,15} <= 1
 R0149: R{4,16} <= 1
 R0150: R{4,17} <= 1
 R0151: R{4,18} <= 1
 R0152: R{4,19} <= 1
 R0153: R{4,20} <= 1
 R0154: R{4,21} <= 1
 R0155: R{4,22} <= 1
 R0156: R{4,23} <= 1
 R0157: R{4,24} <= 1
 R0158: R{4,25} <= 1
 R0159: R{4,26} <= 1
 R0160: R{4,27} <= 1
 R0161: R{4,28} <= 1
 R0162: R{4,29} <= 1
 R0163: R{4,30} <= 1
 R0164: R{4,31} <= 1
 R0165: R{4,32} <= 1
 R0166: R{4,33} <= 1
 R0167: R{4,34} <= 1
 R0168: R{4,35} <= 1
 R0169: R{4,36} <= 1
 R0170: R{4,37} <= 1
 R0171: R{4,38} <= 1
 R0172: R{4,39} <= 1
 R0173: R{4,40} <= 1
 R0174: R{4,41} <= 1
 R0175: R{4,42} <= 1
 R0176: R{4,43} <= 1
 R0177: R{4,44} <= 1
 R0178: R{5,0} <= 1
 R0179: R{5,1} <= 1
 R0180: R{5,2} <= 1
 R0181: R{5,3} <= 1
 R0182: R{5,4} <= 1
 R0183: R{5,5} <= 1
 R0184: R{5,6} <= 1
 R0185: R{5,7} <= 1
 R0186: R{5,8} <= 1
 R0187: R{5,9} <= 1
 R0188: R{5,10} <= 1
 R0189: R{5,11} <= 1
 R0190: R{5,12} <= 1
 R0191: R{5,13} <= 1
 R0192: R{5,14} <= 1
 R0193: R{5,15} <= 1
 R0194: R{5,16} <= 1
 R0195: R{5,17} <= 1
 R0196: R{5,18} <= 1
 R0197: R{5,19} <= 1
 R0198: R{5,20} <= 1
 R0199: R{5,21} <= 1
 R0200: R{5,22} <= 1
 R0201: R{5,23} <= 1
 R0202: R{5,24} <= 1
 R0203: R{5,25} <= 1
 R0204: R{5,26} <= 1
 R0205: R{5,27} <= 1
 R0206: R{5,28} <= 1
 R0207: R{5,29} <= 1
 R0208: R{5,30} <= 1
 R0209: R{5,31} <= 1
 R0210: R{5,32} <= 1
 R0211: R{5,33} <= 1
 R0212: R{5,34} <= 1
 R0213: R{5,35} <= 1
 R0214: R{5,36} <= 1
 R0215: R{5,37} <= 1
 R0216: R{5,38} <= 1
 R0217: R{6,0} <= 1
 R0218: R{6,1} <= 1
 R0219: R{6,2} <= 1
 R0220: R{6,3} <= 1
 R0221: R{6,4} <= 1
 R0222: R{6,5} <= 1
 R0223: R{6,6} <= 1
 R0224: R{6,7} <= 1
 R0225: R{6,8} <= 1
 R0226: R{6,9} <= 1
 R0227: R{6,10} <= 1
 R0228: R{6,11} <= 1
 R0229: R{6,12} <= 1
 R0230: R{6,13} <= 1
 R0231: R{6,14} <= 1
 R0232: R{6,15} <= 1
 R0233: R{6,16} <= 1
 R0234: R{6,17} <= 1
 R0235: R{6,18} <= 1
 R0236: R{6,19} <= 1
 R0237: R{6,20} <= 1
 R0238: R{6,21} <= 1
 R0239: R{6,22} <= 1
 R0240: R{6,23} <= 1
 R0241: R{6,24} <= 1
 R0242: R{6,25} <= 1
 R0243: R{6,26} <= 1
 R0244: R{6,27} <= 1
 R0245: R{6,28} <= 1
 R0246: R{6,29} <= 1
 R0247: R{6,30} <= 1
 R0248: R{6,31} <= 1
 R0249: R{6,32} <= 1
 R0250: R{6,33} <= 1
 R0251: R{6,34} <= 1
 R0252: R{6,35} <= 1
 R0253: R{6,36} <= 1
 R0254: R{6,37} <= 1
 R0255: R{6,38} <= 1
 R0256: R{6,39} <= 1
 R0257: R{6,40} <= 1
 R0258: R{6,41} <= 1
 R0259: R{6,42} <= 1
 R0260: R{6,43} <= 1
 R0261: R{6,44} <= 1
 R1_0: R{0,0} + R{0,1} + R{0,2} + R{0,3} + R{0,4} + R{0,5} + R{0,6}
   + R{0,7} + R{0,8} + R{0,9} + R{0,10} + R{0,11} + R{0,12} + R{0,13}
   + R{0,14} + R{0,15} + R{0,16} + R{0,17} + R{0,18} + R{0,19} + R{0,20}
   + R{0,21} + R{0,22} + R{0,23} + R{0,24} + R{0,25} + R{0,26} + R{0,27}
   <= 1
 R1_1: R{1,0} + R{1,1} + R{1,2} + R{1,3} + R{1,4} + R{1,5} + R{1,6}
   + R{1,7} + R{1,8} + R{1,9} + R{1,10} + R{1,11} + R{1,12} + R{1,13}
   + R{1,14} + R{1,15} + R{1,16} + R{1,17} + R{1,18} + R{1,19} + R{1,20}
   + R{1,21} + R{1,22} + R{1,23} + R{1,24} + R{1,25} <= 1
 R1_2: R{2,0} + R{2,1} + R{2,2} + R{2,3} + R{2,4} + R{2,5} + R{2,6}
   + R{2,7} + R{2,8} + R{2,9} + R{2,10} + R{2,11} + R{2,12} + R{2,13}
   + R{2,14} + R{2,15} + R{2,16} + R{2,17} + R{2,18} + R{2,19} + R{2,20}
   + R{2,21} + R{2,22} + R{2,23} + R{2,24} + R{2,25} + R{2,26} + R{2,27}
   + R{2,28} + R{2,29} + R{2,30} + R{2,31} <= 1
 R1_3: R{3,0} + R{3,1} + R{3,2} + R{3,3} + R{3,4} + R{3,5} + R{3,6}
   + R{3,7} + R{3,8} + R{3,9} + R{3,10} + R{3,11} + R{3,12} + R{3,13}
   + R{3,14} + R{3,15} + R{3,16} + R{3,17} + R{3,18} + R{3,19} + R{3,20}
   + R{3,21} + R{3,22} + R{3,23} + R{3,24} + R{3,25} + R{3,26} + R{3,27}
   + R{3,28} + R{3,29} + R{3,30} + R{3,31} + R{3,32} + R{3,33} + R{3,34}
   + R{3,35} + R{3,36} + R{3,37} + R{3,38} + R{3,39} + R{3,40} + R{3,41}
   + R{3,42} + R{3,43} + R{3,44} + R{3,45} + R{3,46} <= 1
 R1_4: R{4,0} + R{4,1} + R{4,2} + R{4,3} + R{4,4} + R{4,5} + R{4,6}
   + R{4,7} + R{4,8} + R{4,9} + R{4,10} + R{4,11} + R{4,12} + R{4,13}
   + R{4,14} + R{4,15} + R{4,16} + R{4,17} + R{4,18} + R{4,19} + R{4,20}
   + R{4,21} + R{4,22} + R{4,23} + R{4,24} + R{4,25} + R{4,26} + R{4,27}
   + R{4,28} + R{4,29} + R{4,30} + R{4,31} + R{4,32} + R{4,33} + R{4,34}
   + R{4,35} + R{4,36} + R{4,37} + R{4,38} + R{4,39} + R{4,40} + R{4,41}
   + R{4,42} + R{4,43} + R{4,44} <= 1
 R1_5: R{5,0} + R{5,1} + R{5,2} + R{5,3} + R{5,4} + R{5,5} + R{5,6}
   + R{5,7} + R{5,8} + R{5,9} + R{5,10} + R{5,11} + R{5,12} + R{5,13}
   + R{5,14} + R{5,15} + R{5,16} + R{5,17} + R{5,18} + R{5,19} + R{5,20}
   + R{5,21} + R{5,22} + R{5,23} + R{5,24} + R{5,25} + R{5,26} + R{5,27}
   + R{5,28} + R{5,29} + R{5,30} + R{5,31} + R{5,32} + R{5,33} + R{5,34}
   + R{5,35} + R{5,36} + R{5,37} + R{5,38} <= 1
 R1_6: R{6,0} + R{6,1} + R{6,2} + R{6,3} + R{6,4} + R{6,5} + R{6,6}
   + R{6,7} + R{6,8} + R{6,9} + R{6,10} + R{6,11} + R{6,12} + R{6,13}
   + R{6,14} + R{6,15} + R{6,16} + R{6,17} + R{6,18} + R{6,19} + R{6,20}
   + R{6,21} + R{6,22} + R{6,23} + R{6,24} + R{6,25} + R{6,26} + R{6,27}
   + R{6,28} + R{6,29} + R{6,30} + R{6,31} + R{6,32} + R{6,33} + R{6,34}
   + R{6,35} + R{6,36} + R{6,37} + R{6,38} + R{6,39} + R{6,40} + R{6,41}
   + R{6,42} + R{6,43} + R{6,44} <= 1
 R2_0: 7 R{0,12} + 7 R{0,15} + 7 R{0,16} + 7 R{0,20} + 7 R{0,21}
   + 7 R{0,22} + 7 R{0,26} + 7 R{2,27} + 7 R{3,32} + 7 R{3,33} + 7 R{3,40}
   + 7 R{6,30} <= 7
 R2_1: 10 R{1,6} + 10 R{1,9} + 10 R{1,13} + 10 R{1,18} + 10 R{1,19}
   + 10 R{1,23} + 10 R{2,8} + 10 R{2,12} + 10 R{3,1} + 10 R{3,2}
   + 10 R{3,3} + 10 R{3,4} + 10 R{3,6} + 10 R{3,8} + 10 R{3,9} + 10 R{3,10}
   + 10 R{3,12} + 10 R{3,13} + 10 R{3,14} + 10 R{3,16} + 10 R{3,17}
   + 10 R{3,19} + 10 R{3,23} + 10 R{3,26} + 10 R{3,29} + 10 R{3,37}
   + 10 R{3,44} + 10 R{5,12} + 10 R{5,18} + 10 R{6,16} + 10 R{6,19}
   + 10 R{6,22} <= 10
 R2_2: <= 0
 R2_3: 4 R{5,1} + 4 R{5,2} + 4 R{5,3} + 4 R{5,4} + 4 R{5,5} + 4 R{5,9}
   + 4 R{5,10} + 4 R{5,11} + 4 R{5,13} + 4 R{5,17} + 4 R{5,26} + 4 R{5,27}
   + 4 R{5,29} + 4 R{5,31} <= 4
 R2_4: <= 0
 R2_5: 5 R{5,1} + 5 R{5,2} + 5 R{5,3} + 5 R{5,4} + 5 R{5,5} + 5 R{5,6}
   + 5 R{5,7} + 5 R{5,8} + 5 R{5,14} + 5 R{5,15} + 5 R{5,16} + 5 R{5,18}
   + 5 R{5,19} + 5 R{5,22} + 5 R{5,24} + 5 R{5,28} <= 5
 R2_6: 10 R{1,6} + 10 R{1,8} + 10 R{1,12} + 10 R{1,25} + 10 R{2,14}
   + 10 R{2,15} + 10 R{2,16} + 10 R{3,11} + 10 R{3,22} + 10 R{3,25}
   + 10 R{3,35} + 10 R{5,7} + 10 R{5,12} + 10 R{5,14} + 10 R{5,16}
   + 10 R{5,20} + 10 R{5,22} + 10 R{5,35} + 10 R{6,1} + 10 R{6,2}
   + 10 R{6,3} + 10 R{6,4} + 10 R{6,5} + 10 R{6,6} + 10 R{6,7} + 10 R{6,8}
   + 10 R{6,9} + 10 R{6,10} + 10 R{6,11} + 10 R{6,12} + 10 R{6,13}
   + 10 R{6,16} + 10 R{6,17} + 10 R{6,18} + 10 R{6,20} + 10 R{6,24}
   + 10 R{6,26} + 10 R{6,27} + 10 R{6,33} + 10 R{6,34} + 10 R{6,40}
   + 10 R{6,43} <= 10
 R2_7: <= 0
 R2_8: <= 0
 R2_9: 12 R{0,12} + 12 R{4,1} + 12 R{4,2} + 12 R{4,3} + 12 R{4,4}
   + 12 R{4,5} + 12 R{4,6} + 12 R{4,7} + 12 R{4,9} + 12 R{4,10}
   + 12 R{4,11} + 12 R{4,12} + 12 R{4,13} + 12 R{4,14} + 12 R{4,15}
   + 12 R{4,16} + 12 R{4,17} + 12 R{4,18} + 12 R{4,19} + 12 R{4,20}
   + 12 R{4,21} + 12 R{4,22} + 12 R{4,23} + 12 R{4,24} + 12 R{4,25}
   + 12 R{4,26} + 12 R{4,27} + 12 R{4,28} + 12 R{4,29} + 12 R{4,30}
   + 12 R{4,31} + 12 R{4,32} + 12 R{4,35} + 12 R{4,36} + 12 R{4,37}
   + 12 R{4,38} + 12 R{4,39} + 12 R{4,40} + 12 R{4,41} + 12 R{4,42}
   + 12 R{4,43} + 12 R{4,44} + 12 R{5,38} <= 12
 R2_10: 8 R{0,8} + 8 R{0,24} + 8 R{5,15} + 8 R{6,1} + 8 R{6,2} + 8 R{6,3}
   + 8 R{6,4} + 8 R{6,7} + 8 R{6,8} + 8 R{6,10} + 8 R{6,12} + 8 R{6,13}
   + 8 R{6,14} + 8 R{6,15} + 8 R{6,16} + 8 R{6,17} + 8 R{6,18} + 8 R{6,19}
   + 8 R{6,20} + 8 R{6,21} + 8 R{6,22} + 8 R{6,24} + 8 R{6,25} + 8 R{6,26}
   + 8 R{6,32} + 8 R{6,33} + 8 R{6,34} + 8 R{6,37} + 8 R{6,39} <= 8
 R2_11: 15 R{0,11} + 15 R{0,12} + 15 R{0,16} + 15 R{0,17} + 15 R{0,18}
   + 15 R{0,20} + 15 R{0,21} + 15 R{0,22} + 15 R{0,23} + 15 R{0,24}
   + 15 R{0,25} + 15 R{0,27} + 15 R{2,19} + 15 R{2,29} + 15 R{6,21}
   + 15 R{6,37} + 15 R{6,38} + 15 R{6,41} + 15 R{6,42} <= 15
 R2_12: <= 0
 R2_13: <= 0
 R2_14: <= 0
 R2_15: 11 R{0,0} + 11 R{0,1} + 11 R{0,2} + 11 R{4,1} + 11 R{4,2}
   + 11 R{4,3} + 11 R{4,7} + 11 R{4,15} + 11 R{4,25} + 11 R{4,26} <= 11
 R2_16: 5 R{0,7} + 5 R{5,9} + 5 R{5,10} + 5 R{5,11} + 5 R{5,13} + 5 R{5,17}
   + 5 R{5,27} + 5 R{6,31} <= 5
 R2_17: 11 R{0,22} + 11 R{0,27} + 11 R{1,16} + 11 R{3,24} + 11 R{3,27}
   + 11 R{3,29} + 11 R{3,32} + 11 R{3,33} + 11 R{3,40} + 11 R{3,45}
   + 11 R{4,34} + 11 R{4,39} + 11 R{6,18} + 11 R{6,35} + 11 R{6,36}
   + 11 R{6,39} <= 11
 R2_18: 5 R{3,36} + 5 R{6,41} <= 5
 R2_19: 11 R{1,24} + 11 R{2,7} + 11 R{2,30} + 11 R{2,31} + 11 R{3,12}
   + 11 R{4,1} + 11 R{4,2} + 11 R{4,3} + 11 R{4,4} + 11 R{4,5} + 11 R{4,7}
   + 11 R{4,9} + 11 R{4,15} + 11 R{4,21} + 11 R{4,25} + 11 R{4,26}
   + 11 R{4,37} + 11 R{4,41} + 11 R{5,8} + 11 R{5,32} + 11 R{5,33}
   + 11 R{5,34} + 11 R{6,39} <= 11
 R2_20: 13 R{0,5} + 13 R{0,13} + 13 R{0,19} + 13 R{1,4} + 13 R{1,7}
   + 13 R{1,9} + 13 R{1,10} + 13 R{1,11} + 13 R{1,13} + 13 R{1,17}
   + 13 R{1,18} + 13 R{2,5} + 13 R{2,28} + 13 R{3,1} + 13 R{3,2}
   + 13 R{3,3} + 13 R{3,4} + 13 R{3,6} + 13 R{3,7} + 13 R{3,8} + 13 R{3,10}
   + 13 R{3,11} + 13 R{3,13} + 13 R{3,15} + 13 R{3,17} + 13 R{3,18}
   + 13 R{3,21} + 13 R{3,23} + 13 R{3,25} + 13 R{3,29} + 13 R{3,31}
   + 13 R{3,38} + 13 R{3,42} + 13 R{3,43} + 13 R{3,46} + 13 R{4,12}
   + 13 R{4,16} + 13 R{4,18} + 13 R{4,23} + 13 R{4,26} + 13 R{5,2}
   + 13 R{5,4} + 13 R{5,5} + 13 R{5,6} + 13 R{5,7} + 13 R{5,9} + 13 R{5,10}
   + 13 R{5,11} + 13 R{5,13} + 13 R{5,15} + 13 R{5,17} + 13 R{5,18}
   + 13 R{5,20} + 13 R{5,24} + 13 R{5,27} + 13 R{5,28} + 13 R{5,29}
   + 13 R{5,30} + 13 R{5,31} + 13 R{5,37} + 13 R{6,10} + 13 R{6,12}
   + 13 R{6,19} + 13 R{6,21} + 13 R{6,23} + 13 R{6,26} + 13 R{6,32} <= 13
 R2_21: <= 0
 R2_22: 10 R{0,12} + 10 R{0,15} + 10 R{0,16} + 10 R{0,20} + 10 R{0,22}
   + 10 R{0,25} + 10 R{3,43} + 10 R{4,7} + 10 R{4,14} + 10 R{4,17}
   + 10 R{4,19} + 10 R{4,20} + 10 R{4,28} + 10 R{4,29} + 10 R{4,30}
   + 10 R{4,40} + 10 R{6,37} + 10 R{6,38} + 10 R{6,42} + 10 R{6,43} <= 10
 R2_23: 14 R{0,1} + 14 R{0,2} + 14 R{0,7} + 14 R{0,8} + 14 R{0,9}
   + 14 R{0,10} + 14 R{0,14} + 14 R{2,0} + 14 R{2,1} + 14 R{2,24}
   + 14 R{2,27} + 14 R{4,4} + 14 R{4,8} + 14 R{4,18} + 14 R{4,33}
   + 14 R{4,41} + 14 R{6,2} + 14 R{6,3} + 14 R{6,5} + 14 R{6,7}
   + 14 R{6,10} + 14 R{6,11} + 14 R{6,12} + 14 R{6,14} + 14 R{6,16}
   + 14 R{6,17} + 14 R{6,23} + 14 R{6,24} + 14 R{6,25} + 14 R{6,27}
   + 14 R{6,30} + 14 R{6,31} + 14 R{6,33} + 14 R{6,34} + 14 R{6,40}
   + 14 R{6,44} <= 14
 R2_24: 10 R{1,20} + 10 R{2,26} + 10 R{3,1} + 10 R{3,2} + 10 R{3,3}
   + 10 R{3,5} + 10 R{3,7} + 10 R{3,8} + 10 R{3,12} + 10 R{3,15}
   + 10 R{3,16} + 10 R{3,18} + 10 R{3,20} + 10 R{3,21} + 10 R{3,25}
   + 10 R{3,26} + 10 R{3,29} + 10 R{3,30} + 10 R{3,37} + 10 R{3,38}
   + 10 R{3,41} + 10 R{3,43} + 10 R{4,33} + 10 R{4,35} + 10 R{4,37}
   + 10 R{4,38} + 10 R{5,4} + 10 R{5,5} + 10 R{5,9} + 10 R{5,10}
   + 10 R{5,13} + 10 R{5,17} + 10 R{5,22} + 10 R{5,25} + 10 R{5,26}
   + 10 R{5,27} + 10 R{5,29} + 10 R{5,30} + 10 R{5,32} + 10 R{5,36}
   + 10 R{6,8} + 10 R{6,35} + 10 R{6,37} + 10 R{6,42} <= 10
 R2_25: 13 R{3,13} + 13 R{3,17} + 13 R{3,28} + 13 R{3,30} + 13 R{3,32}
   + 13 R{3,34} + 13 R{3,37} + 13 R{3,38} + 13 R{3,46} + 13 R{4,1}
   + 13 R{4,2} + 13 R{4,3} + 13 R{4,4} + 13 R{4,5} + 13 R{4,6} + 13 R{4,8}
   + 13 R{4,9} + 13 R{4,10} + 13 R{4,11} + 13 R{4,12} + 13 R{4,13}
   + 13 R{4,15} + 13 R{4,16} + 13 R{4,18} + 13 R{4,21} + 13 R{4,23}
   + 13 R{4,25} + 13 R{4,27} + 13 R{4,31} + 13 R{4,33} + 13 R{4,35}
   + 13 R{4,37} + 13 R{4,38} + 13 R{4,39} + 13 R{4,41} + 13 R{4,44}
   + 13 R{5,9} + 13 R{5,10} + 13 R{5,11} + 13 R{5,13} + 13 R{5,15}
   + 13 R{5,17} + 13 R{5,27} + 13 R{5,29} + 13 R{5,30} + 13 R{5,31}
   + 13 R{5,38} + 13 R{6,33} + 13 R{6,35} + 13 R{6,36} + 13 R{6,37}
   + 13 R{6,41} <= 13
 R2_26: 6 R{1,1} + 6 R{1,2} + 6 R{1,3} + 6 R{1,4} + 6 R{1,5} + 6 R{1,7}
   + 6 R{1,8} + 6 R{1,10} + 6 R{1,14} + 6 R{1,19} + 6 R{1,20} + 6 R{1,21}
   + 6 R{1,22} + 6 R{2,10} + 6 R{2,13} + 6 R{2,20} + 6 R{2,22} + 6 R{2,23}
   + 6 R{2,27} + 6 R{3,7} + 6 R{3,32} + 6 R{3,38} + 6 R{5,25} + 6 R{6,33}
   + 6 R{6,37} + 6 R{6,38} + 6 R{6,41} <= 6
 R2_27: 5 R{1,3} + 5 R{1,7} + 5 R{1,10} + 5 R{1,16} + 5 R{2,9} + 5 R{2,13}
   + 5 R{2,18} + 5 R{3,4} + 5 R{3,5} + 5 R{3,6} + 5 R{3,9} + 5 R{3,10}
   + 5 R{3,11} + 5 R{3,12} + 5 R{3,13} + 5 R{3,14} + 5 R{3,15} + 5 R{3,23}
   + 5 R{3,24} + 5 R{4,9} + 5 R{4,11} + 5 R{4,13} + 5 R{4,15} + 5 R{4,35}
   + 5 R{4,36} + 5 R{5,11} + 5 R{5,16} + 5 R{5,22} + 5 R{5,25} + 5 R{5,29}
   + 5 R{5,30} + 5 R{5,31} + 5 R{5,36} <= 5
 R2_28: <= 0
 R2_29: <= 0
 R2_30: <= 0
 R2_31: <= 6
 R2_32: 7 R{0,4} + 7 R{0,5} + 7 R{1,12} + 7 R{1,23} + 7 R{3,42} + 7 R{5,4}
   + 7 R{5,5} + 7 R{5,6} + 7 R{5,7} + 7 R{5,8} + 7 R{5,9} + 7 R{5,10}
   + 7 R{5,11} + 7 R{5,13} + 7 R{5,14} + 7 R{5,15} + 7 R{5,16} + 7 R{5,17}
   + 7 R{5,19} + 7 R{5,21} + 7 R{5,22} + 7 R{5,25} + 7 R{5,26} + 7 R{5,28}
   + 7 R{5,29} + 7 R{5,33} + 7 R{5,35} <= 7
 R2_33: 12 R{3,11} + 12 R{3,12} + 12 R{3,16} + 12 R{3,19} + 12 R{3,23}
   + 12 R{3,30} + 12 R{3,36} + 12 R{5,23} + 12 R{6,31} <= 12
 R2_34: 5 R{0,12} + 5 R{0,15} + 5 R{0,26} + 5 R{3,6} + 5 R{3,9} + 5 R{3,14}
   + 5 R{3,24} + 5 R{3,28} + 5 R{3,40} + 5 R{4,22} + 5 R{5,9} + 5 R{6,7}
   + 5 R{6,12} + 5 R{6,13} + 5 R{6,20} + 5 R{6,21} + 5 R{6,25} <= 5
 R2_35: 13 R{4,31} + 13 R{5,23} + 13 R{6,21} <= 13
 R2_36: <= 0
 R2_37: 5 R{1,15} + 5 R{2,22} + 5 R{2,23} + 5 R{2,25} + 5 R{2,26}
   + 5 R{2,27} + 5 R{3,20} + 5 R{3,30} + 5 R{5,1} + 5 R{5,3} + 5 R{5,14}
   + 5 R{5,16} + 5 R{5,19} + 5 R{5,21} + 5 R{5,22} + 5 R{5,23} + 5 R{5,25}
   + 5 R{5,26} + 5 R{5,32} + 5 R{5,36} + 5 R{6,29} + 5 R{6,35} + 5 R{6,36}
   + 5 R{6,37} + 5 R{6,38} + 5 R{6,41} + 5 R{6,42} <= 5
 R2_38: <= 0
 R2_39: <= 0
 R2_40: 15 R{2,3} + 15 R{2,4} + 15 R{2,5} + 15 R{2,7} + 15 R{2,8}
   + 15 R{2,10} + 15 R{2,12} + 15 R{2,14} + 15 R{2,15} + 15 R{2,16}
   + 15 R{2,18} + 15 R{2,20} + 15 R{2,25} + 15 R{2,27} + 15 R{2,28}
   + 15 R{3,32} + 15 R{5,16} + 15 R{5,19} + 15 R{5,21} + 15 R{5,37} <= 15
 R2_41: 5 R{2,27} + 5 R{3,2} + 5 R{3,3} + 5 R{3,4} + 5 R{3,6} + 5 R{3,7}
   + 5 R{3,9} + 5 R{3,13} + 5 R{3,14} + 5 R{3,17} + 5 R{3,18} + 5 R{3,21}
   + 5 R{3,26} + 5 R{3,27} + 5 R{3,28} + 5 R{3,29} + 5 R{3,32} + 5 R{3,37}
   + 5 R{3,42} + 5 R{3,46} + 5 R{4,25} + 5 R{4,26} + 5 R{4,31} + 5 R{4,36}
   + 5 R{4,44} + 5 R{5,15} + 5 R{5,17} + 5 R{5,22} + 5 R{5,25} + 5 R{5,28}
   + 5 R{6,4} + 5 R{6,9} + 5 R{6,17} + 5 R{6,18} + 5 R{6,27} + 5 R{6,29}
   + 5 R{6,32} + 5 R{6,33} + 5 R{6,39} <= 5
 R2_42: 4 R{2,3} + 4 R{2,4} + 4 R{2,5} + 4 R{2,7} + 4 R{2,8} + 4 R{2,9}
   + 4 R{2,12} + 4 R{2,14} + 4 R{2,28} <= 4
 R2_43: <= 0
 R2_44: <= 0
 R2_45: <= 0
 R2_46: 9 R{0,6} + 9 R{0,11} + 9 R{0,15} + 9 R{0,26} + 9 R{4,5} + 9 R{4,6}
   + 9 R{4,10} + 9 R{4,12} + 9 R{4,21} + 9 R{4,40} + 9 R{5,9} + 9 R{5,10}
   + 9 R{5,11} + 9 R{5,13} + 9 R{5,17} + 9 R{5,27} + 9 R{5,29} + 9 R{5,30}
   + 9 R{5,31} <= 9
 R2_47: 7 R{1,1} + 7 R{1,2} + 7 R{1,3} + 7 R{1,5} + 7 R{1,20} + 7 R{1,21}
   <= 7
 R2_48: 4 R{0,14} + 4 R{0,22} + 4 R{2,27} + 4 R{4,1} + 4 R{4,2} + 4 R{4,3}
   + 4 R{4,4} + 4 R{4,5} + 4 R{4,6} + 4 R{4,7} + 4 R{4,8} + 4 R{4,9}
   + 4 R{4,11} + 4 R{4,12} + 4 R{4,13} + 4 R{4,15} + 4 R{4,16} + 4 R{4,18}
   + 4 R{4,19} + 4 R{4,21} + 4 R{4,22} + 4 R{4,23} + 4 R{4,24} + 4 R{4,25}
   + 4 R{4,26} + 4 R{4,27} + 4 R{4,31} + 4 R{4,32} + 4 R{4,33} + 4 R{4,34}
   + 4 R{4,35} + 4 R{4,36} + 4 R{4,40} + 4 R{4,44} + 4 R{5,38} + 4 R{6,37}
   + 4 R{6,38} + 4 R{6,42} <= 4
 R2_49: <= 0
 R2_50: <= 0
 R2_51: <= 11
 R2_52: 10 R{4,13} + 10 R{4,16} + 10 R{4,17} + 10 R{4,20} + 10 R{4,22}
   + 10 R{4,24} + 10 R{4,28} + 10 R{4,29} + 10 R{4,30} + 10 R{4,31}
   + 10 R{4,34} + 10 R{4,39} + 10 R{4,43} + 10 R{4,44} <= 10
 R2_53: 13 R{4,1} + 13 R{4,2} + 13 R{4,4} + 13 R{4,5} + 13 R{4,6}
   + 13 R{4,7} + 13 R{4,8} + 13 R{4,10} + 13 R{4,12} + 13 R{4,14}
   + 13 R{4,15} + 13 R{4,16} + 13 R{4,17} + 13 R{4,18} + 13 R{4,22}
   + 13 R{4,33} + 13 R{4,37} + 13 R{4,39} + 13 R{5,38} <= 13
 R2_54: 9 R{1,19} + 9 R{1,22} + 9 R{1,23} + 9 R{3,1} + 9 R{3,2} + 9 R{3,3}
   + 9 R{3,4} + 9 R{3,5} + 9 R{3,7} + 9 R{3,8} + 9 R{3,10} + 9 R{3,13}
   + 9 R{3,15} + 9 R{3,16} + 9 R{3,17} + 9 R{3,18} + 9 R{3,19} + 9 R{3,21}
   + 9 R{3,25} + 9 R{3,26} + 9 R{3,29} + 9 R{3,30} + 9 R{3,31} + 9 R{3,36}
   + 9 R{3,38} + 9 R{3,41} + 9 R{3,42} + 9 R{3,43} + 9 R{3,46} + 9 R{6,31}
   <= 9
 R2_55: 8 R{0,27} + 8 R{2,27} + 8 R{3,20} + 8 R{3,22} + 8 R{3,45}
   + 8 R{4,32} + 8 R{4,43} + 8 R{5,38} <= 8
 R2_56: <= 6
 R2_57: <= 0
 R2_58: 15 R{0,18} + 15 R{0,20} + 15 R{0,21} + 15 R{0,22} + 15 R{0,23}
   + 15 R{0,27} + 15 R{2,19} + 15 R{2,24} + 15 R{2,27} + 15 R{2,29}
   + 15 R{6,31} + 15 R{6,35} + 15 R{6,36} <= 15
 R2_59: 10 R{3,11} + 10 R{3,26} + 10 R{4,11} + 10 R{4,13} + 10 R{4,14}
   + 10 R{4,17} + 10 R{4,28} + 10 R{4,29} + 10 R{4,30} + 10 R{4,31}
   + 10 R{4,34} + 10 R{4,35} + 10 R{4,44} + 10 R{5,10} + 10 R{5,11}
   + 10 R{5,13} + 10 R{5,29} + 10 R{6,13} + 10 R{6,21} <= 10
 R2_60: <= 0
 R2_61: 9 R{0,10} + 9 R{0,17} + 9 R{2,11} + 9 R{2,17} + 9 R{3,24}
   + 9 R{4,8} + 9 R{4,24} + 9 R{4,28} + 9 R{4,33} + 9 R{5,9} + 9 R{5,10}
   + 9 R{5,11} + 9 R{5,13} + 9 R{5,17} + 9 R{5,27} + 9 R{5,29} + 9 R{5,30}
   + 9 R{5,31} + 9 R{6,28} <= 9
 R2_62: <= 0
 R2_63: <= 0
 R2_64: <= 0
 R2_65: 5 R{0,18} + 5 R{0,23} + 5 R{2,0} + 5 R{2,1} + 5 R{2,11} + 5 R{2,19}
   + 5 R{2,24} + 5 R{3,30} + 5 R{3,34} + 5 R{4,27} + 5 R{4,44} + 5 R{5,30}
   + 5 R{6,1} + 5 R{6,2} + 5 R{6,3} + 5 R{6,5} + 5 R{6,6} + 5 R{6,7}
   + 5 R{6,8} + 5 R{6,9} + 5 R{6,10} + 5 R{6,11} + 5 R{6,12} + 5 R{6,13}
   + 5 R{6,14} + 5 R{6,15} + 5 R{6,16} + 5 R{6,17} + 5 R{6,18} + 5 R{6,19}
   + 5 R{6,20} + 5 R{6,21} + 5 R{6,23} + 5 R{6,26} + 5 R{6,27} + 5 R{6,28}
   + 5 R{6,29} + 5 R{6,31} + 5 R{6,32} + 5 R{6,33} + 5 R{6,35} + 5 R{6,37}
   + 5 R{6,39} + 5 R{6,41} + 5 R{6,42} + 5 R{6,43} + 5 R{6,44} <= 5
 R2_66: 7 R{1,6} + 7 R{1,12} + 7 R{1,14} + 7 R{1,15} + 7 R{1,19}
   + 7 R{1,22} + 7 R{1,23} + 7 R{1,24} + 7 R{1,25} + 7 R{2,16} + 7 R{3,19}
   + 7 R{3,44} + 7 R{5,12} + 7 R{5,23} <= 7
 R2_67: 3 R{0,1} + 3 R{0,2} + 3 R{0,6} + 3 R{0,7} + 3 R{0,8} + 3 R{0,9}
   + 3 R{0,14} + 3 R{0,15} + 3 R{0,16} + 3 R{0,17} + 3 R{0,24} + 3 R{0,25}
   + 3 R{0,26} + 3 R{2,0} + 3 R{2,1} + 3 R{2,6} + 3 R{4,34} + 3 R{6,5}
   + 3 R{6,9} + 3 R{6,10} + 3 R{6,11} + 3 R{6,12} + 3 R{6,14} + 3 R{6,16}
   + 3 R{6,23} + 3 R{6,24} + 3 R{6,25} + 3 R{6,27} + 3 R{6,30} + 3 R{6,37}
   + 3 R{6,38} + 3 R{6,40} + 3 R{6,41} + 3 R{6,42} + 3 R{6,44} <= 3
 R2_68: 6 R{1,6} + 6 R{1,12} + 6 R{1,14} + 6 R{1,22} + 6 R{1,24}
   + 6 R{1,25} + 6 R{2,10} + 6 R{2,13} + 6 R{2,30} + 6 R{3,26} + 6 R{3,37}
   + 6 R{4,1} + 6 R{4,3} + 6 R{4,4} + 6 R{4,6} + 6 R{4,8} + 6 R{4,9}
   + 6 R{4,10} + 6 R{4,11} + 6 R{4,14} + 6 R{4,15} + 6 R{4,17} + 6 R{4,20}
   + 6 R{4,23} + 6 R{4,32} + 6 R{4,36} + 6 R{4,37} + 6 R{4,38} + 6 R{4,41}
   + 6 R{4,43} <= 6
 R2_69: 7 R{0,13} + 7 R{1,21} + 7 R{2,10} + 7 R{2,20} + 7 R{2,22}
   + 7 R{2,30} + 7 R{2,31} + 7 R{3,12} + 7 R{3,23} + 7 R{4,1} + 7 R{4,2}
   + 7 R{4,3} + 7 R{4,4} + 7 R{4,5} + 7 R{4,6} + 7 R{4,7} + 7 R{4,8}
   + 7 R{4,10} + 7 R{4,12} + 7 R{4,14} + 7 R{4,16} + 7 R{4,17} + 7 R{4,18}
   + 7 R{4,20} + 7 R{4,21} + 7 R{4,23} + 7 R{4,25} + 7 R{4,26} + 7 R{4,27}
   + 7 R{4,28} + 7 R{4,29} + 7 R{4,30} + 7 R{4,32} + 7 R{4,40} + 7 R{4,41}
   + 7 R{5,15} + 7 R{5,21} + 7 R{5,28} + 7 R{5,33} <= 7
 R2_70: 11 R{6,1} + 11 R{6,2} + 11 R{6,3} + 11 R{6,5} + 11 R{6,6}
   + 11 R{6,8} + 11 R{6,10} + 11 R{6,11} + 11 R{6,14} + 11 R{6,15}
   + 11 R{6,16} + 11 R{6,17} + 11 R{6,19} + 11 R{6,22} + 11 R{6,23}
   + 11 R{6,24} + 11 R{6,26} + 11 R{6,28} + 11 R{6,30} + 11 R{6,34}
   + 11 R{6,40} + 11 R{6,44} <= 11
 R2_71: 7 R{3,1} + 7 R{3,2} + 7 R{3,3} + 7 R{3,7} + 7 R{3,17} + 7 R{3,18}
   + 7 R{3,24} + 7 R{3,25} + 7 R{3,26} + 7 R{3,28} + 7 R{3,30} + 7 R{3,32}
   + 7 R{3,34} + 7 R{3,37} + 7 R{3,38} + 7 R{3,42} + 7 R{3,46} + 7 R{4,43}
   + 7 R{6,2} + 7 R{6,3} + 7 R{6,5} + 7 R{6,6} + 7 R{6,7} + 7 R{6,9}
   + 7 R{6,11} + 7 R{6,13} + 7 R{6,15} + 7 R{6,17} + 7 R{6,18} + 7 R{6,20}
   + 7 R{6,21} + 7 R{6,27} + 7 R{6,29} + 7 R{6,31} + 7 R{6,33} + 7 R{6,34}
   + 7 R{6,35} + 7 R{6,36} + 7 R{6,37} + 7 R{6,38} + 7 R{6,39} + 7 R{6,40}
   + 7 R{6,42} + 7 R{6,44} <= 7
 R2_72: <= 0
 R2_73: <= 0
 R2_74: 5 R{5,1} + 5 R{5,2} + 5 R{5,3} + 5 R{5,4} + 5 R{5,5} + 5 R{5,6}
   + 5 R{5,7} + 5 R{5,8} + 5 R{5,14} + 5 R{5,15} + 5 R{5,16} + 5 R{5,18}
   + 5 R{5,19} + 5 R{5,20} + 5 R{5,22} + 5 R{5,24} + 5 R{5,26} + 5 R{5,28}
   + 5 R{5,32} + 5 R{5,35} + 5 R{5,37} + 5 R{5,38} <= 5
 R2_75: 8 R{3,33} + 8 R{4,34} + 8 R{6,1} + 8 R{6,2} + 8 R{6,3} + 8 R{6,4}
   + 8 R{6,5} + 8 R{6,6} + 8 R{6,7} + 8 R{6,8} + 8 R{6,9} + 8 R{6,10}
   + 8 R{6,11} + 8 R{6,12} + 8 R{6,14} + 8 R{6,15} + 8 R{6,16} + 8 R{6,17}
   + 8 R{6,18} + 8 R{6,19} + 8 R{6,22} + 8 R{6,23} + 8 R{6,24} + 8 R{6,25}
   + 8 R{6,26} + 8 R{6,27} + 8 R{6,28} + 8 R{6,29} + 8 R{6,30} + 8 R{6,31}
   + 8 R{6,32} + 8 R{6,33} + 8 R{6,34} + 8 R{6,39} + 8 R{6,40} + 8 R{6,43}
   + 8 R{6,44} <= 8
 R2_76: 12 R{0,4} + 12 R{0,19} + 12 R{1,4} + 12 R{1,6} + 12 R{1,8}
   + 12 R{1,14} + 12 R{1,15} + 12 R{1,18} + 12 R{1,19} + 12 R{1,22}
   + 12 R{2,10} + 12 R{2,13} + 12 R{2,20} + 12 R{2,22} + 12 R{2,23}
   + 12 R{2,25} + 12 R{2,27} + 12 R{2,30} + 12 R{2,31} + 12 R{3,3}
   + 12 R{3,7} + 12 R{3,8} + 12 R{3,15} + 12 R{3,20} + 12 R{3,22}
   + 12 R{3,29} + 12 R{3,31} + 12 R{3,35} + 12 R{3,39} + 12 R{3,43}
   + 12 R{3,46} + 12 R{5,16} + 12 R{5,19} + 12 R{5,21} + 12 R{5,33}
   + 12 R{5,34} + 12 R{5,36} + 12 R{6,17} + 12 R{6,18} + 12 R{6,34} <= 12
 R2_77: 7 R{1,2} + 7 R{1,4} + 7 R{1,5} + 7 R{1,6} + 7 R{1,12} + 7 R{1,14}
   + 7 R{1,15} + 7 R{1,19} + 7 R{1,23} + 7 R{1,24} + 7 R{1,25} + 7 R{2,4}
   + 7 R{2,5} + 7 R{2,12} + 7 R{2,14} + 7 R{2,18} + 7 R{2,28} + 7 R{4,2}
   + 7 R{4,5} + 7 R{4,25} + 7 R{6,3} <= 7
Bounds
End
